WARNING: for repeatability, setting FPU to use double precision
============================[ Problem Statistics ]=============================
|                                                                             |
|  Number of variables:           100                                         |
|  Number of clauses:             449                                         |
|  Parse time:                   0.00 s                                       |
|  Eliminated clauses:           0.00 Mb                                      |
|  Simplification time:          0.00 s                                       |
|                                                                             |
============================[ Search Statistics ]==============================
| Conflicts |          ORIGINAL         |          LEARNT          | Progress |
|           |    Vars  Clauses Literals |    Limit  Clauses Lit/Cl |          |
===============================================================================
|       100 |      99      448     1348 |      164      100      8 |  0.010 % |
|       250 |      99      448     1348 |      180      166      7 |  0.010 % |
|       475 |      99      448     1348 |      198      108      6 |  0.010 % |
===============================================================================
restarts              : 6
conflicts             : 660            (150892 /sec)
decisions             : 797            (0.00 % random) (182213 /sec)
propagations          : 15792          (3610425 /sec)
conflict literals     : 4213           (23.71 % deleted)
Memory used           : 13.00 MB
CPU time              : 0.004374 s

SATISFIABLE
